NAME : ch130.opt.tour
COMMENT : 6574.06796549547  #   Population: 100   Iteration: 1000   Elitism Ratio: 0.07   Mutation Ratio: 0.1   Crossover Ratio: 0.95
TYPE : TOUR
DIMENSION : 130
TOUR_SECTION
1
41
39
71
130
50
2
54
35
118
80
46
20
4
93
37
22
47
23
40
44
42
51
60
120
53
49
58
106
38
92
73
99
74
75
52
9
57
56
65
82
101
123
111
119
84
36
32
113
25
48
68
63
70
97
26
7
88
86
69
64
124
129
61
109
76
11
5
45
16
128
105
62
112
117
115
28
83
3
114
108
8
18
21
33
126
30
59
90
125
85
66
78
121
96
67
13
10
14
122
55
6
102
91
72
12
87
81
103
77
94
89
110
98
19
15
29
79
95
116
24
100
27
31
17
34
43
104
107
127
-1
EOF
